c 75_3_checker.cnf
c
c field = 75
c formula set type = 3_checker
c
p cnf 4 22
142 
144 
146 
-140 
143 
145 
147 
-141 
58 
88 
118 
-28 
59 
89 
119 
-29 
58 
88 
118 
-178 
59 
89 
119 
-179 
88 
118 
178 
-58 
89 
119 
179 
-59 
88 
118 
178 
-208 
89 
119 
179 
-209 
118 
178 
208 
-88 
119 
179 
209 
-89 
118 
178 
208 
-238 
119 
179 
209 
-239 
178 
208 
238 
-118 
179 
209 
239 
-119 
178 
208 
238 
-268 
179 
209 
239 
-269 
52 
84 
116 
-20 
53 
85 
117 
-21 
176 
204 
232 
-260 
177 
205 
233 
-261 
